95
0 0 0 0 0 0 0 0 0 0 0 0 0 0 0 0 0 0 0 0 0 0 0 0 0 0 0 0 0 0 0 0 0 0 0 0 0 0 0 0 0 0 0 0 0 0 0 0 0 0 0 0 0 0 0 0 0 0 0 0 0 0 0 0 0 0 0 0 0 0 0 0 0 0 0 0 0 0 0 0 0 0 0 0 0 0 0 0 0 0 0 0 0 0 0
0 0 0 0 0 0 0 0 0 0 0 0 0 0 0 0 0 0 0 0 0 0 0 0 0 0 0 0 0 0 0 0 0 0 0 0 0 2 0 0 0 0 0 0 0 0 0 0 0 0 0 0 0 2 0 0 0 0 0 0 0 0 0 0 0 0 0 0 0 0 0 0 0 0 0 0 0 0 0 0 1 0 0 0 0 0 0 0 0 0 0 0 0 0 1
0 0 0 0 0 0 0 0 0 0 0 0 0 0 0 0 0 0 0 0 0 0 0 0 0 0 0 0 0 0 0 0 0 0 0 0 0 0 0 0 0 0 0 0 0 0 0 0 0 0 0 0 0 0 0 0 0 0 0 0 0 0 0 0 0 0 0 0 0 0 0 0 0 0 0 0 0 0 0 0 0 0 0 0 0 0 0 0 0 0 0 0 0 0 0
0 0 0 0 0 0 0 0 0 0 0 1 0 0 0 0 0 0 0 0 0 0 1 0 0 0 0 0 0 0 0 0 0 0 0 0 0 0 0 0 0 0 0 2 0 0 0 0 0 0 0 0 0 0 0 0 0 0 0 0 0 0 0 0 0 0 0 0 0 0 0 0 0 0 0 0 0 0 0 0 0 3 0 0 0 0 0 0 0 0 0 0 0 0 0
0 0 0 0 0 0 0 0 0 0 0 0 0 0 0 0 0 0 0 0 0 0 1 0 0 0 0 0 0 0 0 0 0 0 0 0 0 0 0 0 1 0 0 0 0 0 0 0 0 0 0 0 0 0 0 0 0 0 0 0 0 0 0 2 0 0 0 0 0 0 0 0 0 0 0 0 0 0 0 0 0 2 0 0 0 0 0 0 0 0 0 0 0 0 0
0 0 0 0 0 0 0 0 0 0 0 0 0 0 0 0 0 0 0 0 0 0 0 0 0 0 0 0 0 0 0 0 0 0 0 0 0 0 0 0 0 0 0 0 0 0 0 0 0 0 0 0 0 0 0 0 0 0 0 0 0 0 0 0 0 0 0 0 0 0 0 0 0 0 0 0 0 0 0 0 0 0 0 0 0 0 0 0 0 0 0 0 0 0 0
0 0 0 0 0 0 0 0 0 0 0 0 0 0 0 0 0 0 0 0 0 0 0 0 0 0 0 0 0 0 0 0 0 0 0 0 0 0 0 0 0 0 0 0 0 0 0 0 0 0 0 0 0 0 0 0 0 0 0 0 0 0 0 0 0 0 0 0 0 0 0 0 0 0 0 0 0 0 0 0 0 0 0 0 0 0 0 0 0 0 0 0 0 0 0
0 0 0 0 0 0 0 0 0 0 0 0 0 0 0 0 0 0 0 0 0 0 0 0 0 0 0 0 0 0 0 0 0 0 0 0 0 0 0 0 0 0 0 0 0 0 0 0 0 0 0 0 0 0 0 0 0 0 0 0 0 0 0 0 0 0 0 0 0 0 0 0 0 0 0 0 0 0 0 0 0 0 0 0 0 0 0 0 0 0 0 0 0 0 0
0 0 0 0 0 0 0 0 0 0 0 0 0 0 0 0 0 0 0 0 0 0 0 0 0 0 0 0 1 0 0 0 0 0 2 0 0 0 0 0 0 0 0 0 0 0 0 0 0 0 0 0 0 0 0 0 0 0 0 0 0 0 0 0 0 0 0 0 0 0 0 0 0 0 0 0 0 0 0 0 0 0 0 0 0 0 0 0 0 0 0 0 0 0 0
0 0 0 0 0 0 0 0 0 0 0 0 1 0 0 0 0 0 0 0 0 0 0 0 0 0 0 0 0 0 0 0 0 0 0 0 0 0 0 0 0 0 0 0 0 0 0 0 0 0 0 0 0 0 0 0 0 3 0 0 0 0 0 0 0 0 0 2 0 0 0 0 0 0 0 0 0 0 0 0 0 0 0 0 0 1 0 0 0 0 0 0 0 0 0
0 0 0 0 0 0 0 0 0 0 0 0 0 0 0 0 0 0 0 0 1 0 0 0 0 0 0 0 0 0 0 2 0 0 0 0 0 0 0 0 0 0 0 0 0 0 0 0 0 0 0 0 0 0 0 0 0 0 0 0 0 0 0 0 0 0 2 0 1 0 0 0 0 0 0 0 0 0 0 0 0 0 0 0 0 0 0 0 0 0 0 0 0 0 0
0 0 0 1 0 0 0 0 0 0 0 0 0 0 0 0 0 0 0 0 0 0 0 0 0 0 0 0 0 0 0 0 0 0 0 0 0 0 0 0 0 0 0 0 0 0 0 0 0 0 0 0 0 0 0 2 0 0 0 0 0 0 0 0 0 0 0 0 0 0 0 0 0 0 0 0 0 0 0 0 0 2 0 1 0 0 0 0 0 0 0 0 0 0 0
0 0 0 0 0 0 0 0 0 2 0 0 0 0 0 0 0 0 0 0 0 0 0 0 0 0 0 0 0 0 0 0 0 0 0 0 0 0 0 0 0 0 0 0 0 0 0 0 0 0 0 0 0 0 0 0 0 0 0 0 0 0 0 0 0 0 0 1 0 0 0 0 0 0 0 0 0 0 0 0 0 0 0 0 0 0 0 0 0 0 0 0 0 0 0
0 0 0 0 0 0 0 0 0 0 0 0 0 0 0 0 0 0 0 0 0 0 0 0 0 0 0 0 0 0 0 0 0 0 0 0 0 0 0 0 0 0 0 0 0 0 0 0 0 0 0 0 0 0 0 0 0 0 0 0 0 0 0 0 0 0 0 0 0 0 0 0 0 0 0 0 0 1 0 0 2 0 0 0 0 0 0 0 0 0 0 0 0 0 0
0 0 0 0 0 0 0 0 0 0 0 0 0 0 0 0 0 0 0 0 0 0 0 0 0 0 0 0 0 0 0 0 0 0 0 0 0 0 0 0 0 0 0 0 0 0 0 0 0 0 0 0 0 0 0 0 0 0 0 0 0 0 0 0 0 0 0 0 0 0 0 0 0 0 0 0 0 0 0 0 0 0 0 0 0 0 0 0 0 0 0 0 0 0 0
0 0 0 0 0 0 0 0 0 0 0 0 0 0 0 0 0 0 2 0 0 0 0 0 0 0 0 0 0 0 0 0 0 0 0 0 0 0 0 0 0 0 0 0 0 0 0 0 0 0 0 0 0 0 0 0 0 0 0 0 0 0 0 0 0 0 0 0 0 0 0 0 0 0 0 0 0 0 0 0 0 0 0 0 0 0 0 0 0 0 0 0 0 0 1
0 0 0 0 0 0 0 0 0 0 0 0 0 0 0 0 0 0 0 0 0 0 0 0 0 0 0 0 0 0 0 0 0 0 0 0 0 0 0 0 0 0 0 0 0 0 0 0 0 0 0 0 0 0 0 0 0 0 0 0 0 0 0 0 0 0 0 0 0 0 0 0 0 0 0 0 0 0 0 0 0 0 0 0 0 0 0 0 0 0 0 0 0 0 0
0 0 0 0 0 0 0 0 0 0 0 0 0 0 0 0 0 0 0 0 0 0 0 0 0 0 0 0 0 0 0 0 0 0 0 0 0 0 0 0 0 0 0 0 0 0 0 0 0 0 0 0 0 0 0 0 0 0 0 0 0 0 0 2 0 0 0 0 0 0 0 0 0 0 0 0 0 0 1 0 0 0 0 0 0 0 0 0 0 0 0 0 0 0 0
0 0 0 0 0 0 0 0 0 0 0 0 0 0 0 1 0 0 0 0 0 0 0 0 0 0 0 0 0 0 0 0 0 0 0 0 0 0 0 0 0 0 0 0 0 0 0 0 0 0 0 0 0 0 0 0 0 0 0 0 0 0 0 0 0 0 0 0 0 0 0 0 0 0 0 0 0 0 0 0 0 0 0 0 0 0 0 0 0 0 0 0 0 0 2
0 0 0 0 0 0 0 0 0 0 0 0 0 0 0 0 0 0 0 0 0 0 0 0 0 0 0 0 0 1 0 0 0 0 0 0 0 0 0 0 0 0 0 0 2 0 0 0 0 0 0 0 0 0 0 0 0 0 0 0 0 0 0 0 0 0 0 0 0 0 0 0 0 0 0 0 0 0 0 0 0 0 0 0 0 0 0 0 0 0 0 0 0 0 0
0 0 0 0 0 0 0 0 0 0 2 0 0 0 0 0 0 0 0 0 0 0 0 0 0 0 0 0 0 0 0 0 0 0 0 0 0 0 0 0 0 0 0 0 0 0 0 0 0 0 0 0 0 0 0 0 0 0 0 0 0 0 0 0 0 0 1 0 0 0 0 0 0 0 0 0 0 0 0 0 0 0 0 0 0 0 0 0 0 0 0 0 0 0 0
0 0 0 0 0 0 0 0 0 0 0 0 0 0 0 0 0 0 0 0 0 0 0 0 0 0 0 0 0 0 0 0 0 0 0 0 0 0 0 0 0 0 0 0 0 0 0 0 0 0 0 0 0 0 0 0 0 0 0 0 0 0 0 0 0 0 0 0 0 0 0 0 0 0 0 0 0 0 0 0 0 0 0 0 0 0 0 0 0 0 0 0 0 0 0
0 0 0 2 1 0 0 0 0 0 0 0 0 0 0 0 0 0 0 0 0 0 0 0 0 0 0 0 0 0 0 0 0 0 0 0 0 0 0 0 0 0 0 1 0 0 0 0 0 0 1 0 0 0 0 0 0 0 0 0 0 0 0 0 0 0 0 0 0 0 0 0 0 0 0 0 0 0 0 3 0 3 0 0 0 0 0 0 0 0 0 0 0 0 0
0 0 0 0 0 0 0 0 0 0 0 0 0 0 0 0 0 0 0 0 0 0 0 0 0 0 0 0 0 0 0 0 0 0 0 0 0 0 0 0 0 0 0 0 0 0 0 1 0 0 0 0 0 0 0 0 0 0 0 0 0 0 0 0 0 0 0 0 0 0 0 0 2 0 0 0 0 0 0 0 0 0 0 0 0 0 0 0 0 0 0 0 0 0 0
0 0 0 0 0 0 0 0 0 0 0 0 0 0 0 0 0 0 0 0 0 0 0 0 0 0 0 0 0 0 0 1 0 0 0 0 0 0 0 2 1 0 0 0 0 0 0 0 0 0 0 0 0 0 2 0 0 0 1 0 0 0 0 0 0 0 3 0 0 0 0 0 0 0 0 0 0 0 0 0 0 0 0 0 0 0 0 0 0 0 0 0 0 0 0
0 0 0 0 0 0 0 0 0 0 0 0 0 0 0 0 0 0 0 0 0 0 0 0 0 0 0 0 0 0 0 0 0 0 0 0 0 0 0 0 0 0 0 0 0 0 0 0 0 0 0 0 0 0 0 0 0 0 0 0 0 0 0 0 0 0 0 0 0 0 0 0 0 0 0 0 0 0 0 0 0 0 0 0 0 0 0 0 0 0 0 0 0 0 0
0 0 0 0 0 0 0 0 0 0 0 0 0 0 0 0 0 0 0 0 0 0 0 0 0 0 0 0 0 0 0 0 0 0 0 0 0 0 0 0 0 0 0 0 0 0 0 0 0 0 0 0 0 0 0 0 0 0 0 0 0 0 0 0 0 0 0 0 0 0 0 0 0 0 0 0 0 0 0 0 0 0 0 0 0 0 0 0 0 0 0 0 0 0 0
0 0 0 0 0 0 0 0 0 0 0 0 0 0 0 0 0 0 0 0 0 0 0 0 0 0 0 0 0 0 0 0 0 0 0 0 0 0 0 0 0 0 3 0 1 0 0 0 0 0 1 0 0 0 0 0 0 0 0 0 0 0 0 0 0 0 0 0 0 0 0 0 0 0 0 0 0 0 0 0 0 0 0 0 0 0 0 0 0 0 0 0 0 0 2
0 0 0 0 0 0 0 0 1 0 0 0 0 0 0 0 0 0 0 0 0 0 0 0 0 0 0 0 0 0 0 0 1 0 3 0 0 0 0 0 0 0 0 0 0 0 0 0 0 0 3 0 0 0 0 0 0 0 0 0 0 0 0 0 0 0 0 0 0 0 0 0 0 0 0 0 0 0 0 0 0 0 0 0 0 0 0 0 0 0 0 0 0 0 0
0 0 0 0 0 0 0 0 0 0 0 0 0 0 0 0 0 0 0 1 0 0 0 0 0 0 0 0 0 0 0 0 0 0 0 0 0 0 0 0 0 0 0 0 3 0 0 0 0 0 0 0 0 0 0 0 0 0 0 0 0 0 0 0 0 0 0 0 0 0 0 0 0 0 0 0 0 0 0 0 0 0 0 0 0 0 0 0 0 0 0 0 0 0 0
0 0 0 0 0 0 0 0 0 0 0 0 0 0 0 0 0 0 0 0 0 0 0 0 0 0 0 0 0 0 0 0 0 0 1 0 0 0 0 0 0 0 0 0 0 0 0 0 0 0 0 0 0 0 2 0 0 0 0 0 0 0 0 0 0 0 0 0 0 0 0 0 0 0 0 0 0 0 0 0 0 0 0 0 0 0 0 0 0 0 0 0 0 0 0
0 0 0 0 0 0 0 0 0 0 1 0 0 0 0 0 0 0 0 0 0 0 0 0 1 0 0 0 0 0 0 0 0 0 0 0 0 0 0 0 0 0 0 0 0 0 0 0 0 0 0 0 0 0 3 0 0 0 0 3 0 0 0 0 0 0 0 0 2 0 1 0 0 0 0 0 0 0 0 0 0 0 0 0 0 0 0 0 0 0 0 0 0 0 0
0 0 0 0 0 0 0 0 0 0 0 0 0 0 0 0 0 0 0 0 0 0 0 0 0 0 0 0 1 0 0 0 0 0 0 0 2 0 0 0 0 0 0 0 0 0 0 0 0 0 2 0 0 0 0 0 0 0 0 0 0 0 0 0 0 0 0 0 0 0 0 0 0 0 0 0 0 0 0 0 0 0 0 0 0 0 0 0 0 0 1 0 0 0 0
0 0 0 0 0 0 0 0 0 0 0 0 0 0 0 0 0 0 0 0 0 0 0 0 0 0 0 0 0 0 0 0 0 0 0 0 0 0 0 0 0 0 0 0 0 0 0 0 0 0 0 0 0 0 0 0 0 0 0 0 0 0 0 0 0 0 0 0 0 0 0 0 0 0 0 0 0 0 0 0 0 0 0 0 0 0 0 0 0 0 0 0 0 0 0
0 0 0 0 0 0 0 0 1 0 0 0 0 0 0 0 0 0 0 0 0 0 0 0 0 0 0 0 2 0 2 0 0 0 0 0 0 0 0 0 0 0 0 0 0 0 0 0 0 0 0 0 0 0 1 0 0 0 0 0 0 0 0 0 0 0 0 0 0 0 0 0 0 0 0 0 0 0 0 0 0 0 0 0 0 0 0 0 0 0 0 0 0 0 0
0 0 0 0 0 0 0 0 0 0 0 0 0 0 0 0 0 0 0 0 0 0 0 0 0 0 0 0 0 0 0 0 0 0 0 0 0 0 0 0 0 0 0 0 0 0 0 0 0 0 0 0 0 0 0 0 0 0 0 0 0 0 0 0 0 0 0 0 0 0 0 0 0 0 0 0 0 0 0 0 0 0 0 0 0 0 0 0 0 0 0 0 0 0 0
0 0 0 0 0 0 0 0 0 0 0 0 0 0 0 0 0 0 0 0 0 0 0 0 0 0 0 0 0 0 0 0 1 0 0 0 0 0 0 0 0 0 0 0 0 0 0 0 0 0 0 0 0 0 1 0 0 0 0 2 0 0 0 0 0 0 0 0 0 0 0 0 0 0 2 0 0 0 0 1 0 0 0 0 0 0 0 0 0 0 2 0 0 0 0
0 1 0 0 0 0 0 0 0 0 0 0 0 0 0 0 0 0 0 0 0 0 0 0 0 0 0 0 0 0 0 0 0 0 0 0 0 0 0 0 0 0 0 0 0 0 0 0 0 0 0 0 0 0 0 0 0 0 0 0 0 0 0 0 0 2 0 0 1 0 0 0 0 0 0 0 0 0 0 0 2 0 0 0 0 0 0 0 0 0 0 0 0 0 0
0 0 0 0 0 0 0 0 0 0 0 0 0 0 0 0 0 0 0 0 0 0 0 0 0 0 0 0 0 0 0 0 0 0 0 0 0 0 0 0 0 0 0 0 0 0 0 0 0 0 0 0 0 0 0 0 0 0 0 0 0 0 0 0 0 0 0 0 0 0 0 0 0 0 0 0 0 0 0 0 0 0 0 0 0 0 0 0 0 0 0 0 1 0 3
0 0 0 0 0 0 0 0 0 0 0 0 0 0 0 0 0 0 0 0 0 0 0 0 3 0 0 0 0 0 0 0 0 0 0 0 0 0 0 0 1 0 0 0 0 0 0 0 0 0 0 0 0 0 0 0 0 0 0 0 0 0 0 0 0 0 3 0 0 0 1 0 0 0 0 0 0 0 0 0 0 0 0 0 0 0 0 0 0 0 0 0 0 0 0
0 0 0 0 1 0 0 0 0 0 0 0 0 0 0 0 0 0 0 0 0 0 0 0 2 0 0 0 0 0 0 0 0 0 0 0 0 0 0 1 0 0 0 0 0 0 0 0 0 0 0 0 0 0 0 0 0 0 0 0 0 0 0 3 0 0 0 0 0 0 0 0 0 0 0 0 0 0 0 0 0 0 0 0 0 0 0 0 0 0 0 0 0 0 0
0 0 0 0 0 0 0 0 0 0 0 0 0 0 0 0 0 0 0 0 0 0 0 0 0 0 0 0 0 0 0 0 0 0 0 0 0 0 0 0 0 0 0 0 0 0 0 0 0 0 0 0 0 0 0 0 0 0 0 0 0 0 0 0 0 0 0 0 0 0 0 0 0 0 0 0 0 0 0 0 0 0 0 0 0 0 0 0 0 0 0 0 0 0 0
0 0 0 0 0 0 0 0 0 0 0 0 0 0 0 0 0 0 0 0 0 0 0 0 0 0 0 2 0 0 0 0 0 0 0 0 0 0 0 0 0 0 0 0 1 0 0 0 0 0 0 0 0 0 0 0 0 0 0 0 0 0 0 0 0 0 0 0 0 0 0 0 0 0 0 0 0 0 0 0 0 0 0 0 0 0 0 0 0 0 0 0 0 0 0
0 0 0 3 0 0 0 0 0 0 0 0 0 0 0 0 0 0 0 0 0 0 1 0 0 0 0 0 0 0 0 0 0 0 0 0 0 0 0 0 0 0 0 0 0 0 0 0 0 0 0 0 0 0 0 0 0 0 0 0 0 0 0 0 0 0 0 0 0 0 0 0 0 0 0 0 0 0 0 0 0 0 0 0 0 0 0 0 0 0 0 0 0 0 0
0 0 0 0 0 0 0 0 0 0 0 0 0 0 0 0 0 0 0 1 0 0 0 0 0 0 0 1 0 2 0 0 0 0 0 0 0 0 0 0 0 0 2 0 0 0 0 0 0 0 0 0 0 0 0 0 0 0 0 0 0 0 0 0 0 0 0 0 0 0 0 0 0 0 0 0 0 0 0 0 0 0 0 0 0 0 0 0 0 0 0 0 0 0 0
0 0 0 0 0 0 0 0 0 0 0 0 0 0 0 0 0 0 0 0 0 0 0 0 0 0 0 0 0 0 0 0 0 0 0 0 0 0 0 0 0 0 0 0 0 0 0 0 0 0 0 0 0 0 0 0 0 0 0 0 0 0 0 0 0 0 0 0 0 0 0 0 0 0 0 0 0 0 0 0 0 0 0 0 0 0 0 0 0 0 0 0 0 0 0
0 0 0 0 0 0 0 0 0 0 0 0 0 0 0 0 0 0 0 0 0 0 0 0 0 0 0 0 0 0 0 0 0 0 0 0 0 0 0 0 0 0 0 0 0 0 0 0 0 0 0 0 0 0 0 0 0 0 0 0 0 0 0 0 0 0 0 0 0 0 0 0 0 0 0 0 0 0 0 0 0 0 0 0 0 0 0 0 0 0 0 0 0 0 0
0 0 0 0 0 0 0 0 0 0 0 0 0 0 0 0 0 0 0 0 0 0 0 2 0 0 0 0 0 0 0 0 0 0 0 0 0 0 0 0 0 0 0 0 0 0 0 0 0 0 0 0 0 0 0 0 0 0 0 0 0 0 0 0 0 0 0 0 0 0 0 0 1 0 0 0 0 0 0 0 0 0 0 0 0 0 0 0 0 0 0 0 0 0 0
0 0 0 0 0 0 0 0 0 0 0 0 0 0 0 0 0 0 0 0 0 0 0 0 0 0 0 0 0 0 0 0 0 0 0 0 0 0 0 0 0 0 0 0 0 0 0 0 0 0 0 0 0 0 0 0 0 0 0 0 0 0 0 0 0 0 0 0 0 0 0 0 0 0 0 0 0 0 0 0 0 0 0 0 0 0 0 0 0 0 0 0 0 0 0
0 0 0 0 0 0 0 0 0 0 0 0 0 0 0 0 0 0 0 0 0 0 0 0 0 0 0 0 0 0 0 0 0 0 0 0 0 0 0 0 0 0 0 0 0 0 0 0 0 0 0 0 0 0 0 0 0 0 0 0 0 0 0 0 0 0 0 0 0 0 0 0 0 0 0 0 0 0 0 0 0 0 0 0 0 0 0 0 0 0 0 0 0 0 0
0 0 0 0 0 0 0 0 0 0 0 0 0 0 0 0 0 0 0 0 0 0 1 0 0 0 0 1 2 0 0 0 1 0 0 0 0 0 0 0 0 0 0 0 0 0 0 0 0 0 0 0 0 0 0 0 0 0 0 0 0 0 0 0 0 0 0 0 0 0 0 0 0 0 0 0 0 0 0 2 0 0 0 0 0 0 0 0 0 0 0 0 0 0 3
0 0 0 0 0 0 0 0 0 0 0 0 0 0 0 0 0 0 0 0 0 0 0 0 0 0 0 0 0 0 0 0 0 0 0 0 0 0 0 0 0 0 0 0 0 0 0 0 0 0 0 0 0 0 0 0 0 1 0 0 0 0 0 2 0 0 0 0 0 0 0 0 0 0 0 0 0 0 0 0 0 0 0 0 0 0 0 0 0 0 0 0 0 0 0
0 0 0 0 0 0 0 0 0 0 0 0 0 0 0 0 0 0 0 0 0 0 0 0 0 0 0 0 0 0 0 0 0 0 0 0 0 0 0 0 0 0 0 0 0 0 0 0 0 0 0 0 0 0 0 0 0 0 0 0 0 0 0 0 0 0 0 0 0 0 0 0 0 0 0 0 0 0 0 1 0 0 0 0 0 0 0 0 2 0 0 0 0 0 0
0 3 0 0 0 0 0 0 0 0 0 0 0 0 0 0 0 0 0 0 0 0 0 0 0 0 0 0 0 0 0 0 0 0 0 0 0 0 0 0 0 0 0 0 0 0 0 0 0 0 0 0 0 0 0 0 0 0 0 0 0 0 0 0 0 0 0 0 0 0 0 0 0 0 0 0 0 0 0 0 0 0 0 0 0 0 0 0 0 0 0 0 0 0 1
0 0 0 0 0 0 0 0 0 0 0 0 0 0 0 0 0 0 0 0 0 0 0 0 1 0 0 0 0 0 3 2 0 0 1 0 2 0 0 0 0 0 0 0 0 0 0 0 0 0 0 0 0 0 0 0 0 0 0 0 0 0 0 0 0 0 0 0 0 0 0 0 0 0 1 0 0 0 3 0 0 0 0 0 0 0 0 1 0 0 0 0 0 0 0
0 0 0 0 0 0 0 0 0 0 0 1 0 0 0 0 0 0 0 0 0 0 0 0 0 0 0 0 0 0 0 0 0 0 0 0 0 0 0 0 0 0 0 0 0 0 0 0 0 0 0 0 0 0 0 0 0 0 0 0 0 1 0 0 0 0 0 0 0 0 0 0 0 0 0 0 0 0 0 0 0 0 0 2 0 0 0 0 0 2 0 0 0 0 0
0 0 0 0 0 0 0 0 0 0 0 0 0 0 0 0 0 0 0 0 0 0 0 0 0 0 0 0 0 0 0 0 0 0 0 0 0 0 0 0 0 0 0 0 0 0 0 0 0 0 0 0 0 0 0 0 0 0 0 0 0 0 0 0 0 0 0 0 0 0 0 0 0 0 0 0 0 0 0 0 0 0 0 0 0 0 0 0 0 0 0 0 0 0 0
0 0 0 0 0 0 0 0 0 2 0 0 0 0 0 0 0 0 0 0 0 0 0 0 0 0 0 0 0 0 0 0 0 0 0 0 0 0 0 0 0 0 0 0 0 0 0 0 0 0 0 2 0 0 0 0 0 0 0 0 0 0 0 1 0 0 0 0 0 0 0 0 0 0 0 0 0 0 0 0 0 0 0 0 0 1 0 0 0 0 0 0 0 0 0
0 0 0 0 0 0 0 0 0 0 0 0 0 0 0 0 0 0 0 0 0 0 0 0 1 0 0 0 0 0 0 0 0 0 0 0 0 0 0 0 0 0 0 0 0 0 0 0 0 0 0 0 0 0 0 0 0 0 0 0 0 0 0 0 0 0 2 0 0 0 0 0 0 0 0 0 0 0 0 0 0 0 0 0 0 0 0 0 0 0 0 0 0 0 0
0 0 0 0 0 0 0 0 0 0 0 0 0 0 0 0 0 0 0 0 0 0 0 0 0 0 0 0 0 0 0 2 0 0 0 0 1 0 0 0 0 0 0 0 0 0 0 0 0 0 0 0 0 0 0 0 0 0 0 0 0 0 0 0 0 0 0 0 0 0 1 0 0 0 0 0 0 0 0 2 0 0 0 0 0 0 0 0 0 0 0 0 0 0 0
0 0 0 0 0 0 0 0 0 0 0 0 0 0 0 0 0 0 0 0 0 0 0 0 0 0 0 0 0 0 0 0 0 0 0 0 0 0 0 0 0 0 0 0 0 0 0 0 0 0 0 0 0 0 0 0 0 0 0 0 0 0 0 0 0 0 0 0 0 0 0 0 0 0 0 0 0 0 0 0 0 0 0 0 0 0 0 0 0 0 0 0 0 0 0
0 0 0 0 0 0 0 0 0 0 0 0 0 0 0 0 0 0 0 0 0 0 0 0 0 0 0 0 0 0 0 0 0 0 0 0 0 0 0 0 0 0 0 0 0 0 0 0 0 0 0 0 0 0 0 1 0 0 0 0 0 0 0 0 0 0 0 0 0 0 0 0 0 0 0 0 0 0 0 0 0 0 0 0 0 0 0 0 0 3 0 0 0 0 0
0 0 0 0 0 0 0 0 0 0 0 0 0 0 0 0 0 0 0 0 0 0 0 0 0 0 0 0 0 0 0 0 0 0 0 0 0 0 0 0 0 0 0 0 0 0 0 0 0 0 0 0 0 0 0 0 0 0 0 0 0 0 0 0 0 0 0 0 0 0 0 0 0 0 0 0 0 0 0 0 0 0 0 0 0 0 0 0 0 0 0 0 0 0 0
0 0 0 0 1 0 0 0 0 0 0 0 0 0 0 0 0 1 0 0 0 0 0 0 0 0 0 0 0 0 0 0 0 0 0 0 0 0 0 0 2 0 0 0 0 0 0 0 0 0 0 3 0 0 0 0 0 1 0 0 0 0 0 0 0 0 0 0 0 0 0 0 0 0 0 0 0 0 2 0 0 0 0 0 0 0 0 0 0 0 0 0 0 0 0
0 0 0 0 0 0 0 0 0 0 0 0 0 0 0 0 0 0 0 0 0 0 0 0 0 0 0 0 0 0 0 0 0 0 0 0 0 0 0 0 0 0 0 0 0 0 0 0 0 0 0 0 0 0 0 0 0 0 0 0 0 0 0 0 0 0 0 0 0 0 0 0 0 0 0 0 0 0 0 0 0 0 0 0 0 0 0 0 0 0 0 0 0 0 0
0 0 0 0 0 0 0 0 0 0 0 0 0 0 0 0 0 0 0 0 0 0 0 0 0 0 0 0 0 0 0 0 0 0 0 0 0 1 0 0 0 0 0 0 0 0 0 0 0 0 0 0 0 0 0 0 0 0 0 0 0 0 0 0 0 0 0 0 2 0 0 0 0 0 0 0 0 0 0 0 0 0 0 0 0 0 0 0 0 0 0 0 0 0 0
0 0 0 0 0 0 0 0 0 0 3 0 0 0 0 0 0 0 0 0 1 0 0 0 2 0 0 0 0 0 0 0 0 0 0 0 0 0 0 2 0 0 0 0 0 0 0 0 0 0 0 0 0 0 0 0 0 0 1 0 0 0 0 0 0 0 0 0 0 0 1 0 0 0 0 0 0 0 0 0 0 0 0 0 0 0 0 0 0 0 0 0 0 0 0
0 0 0 0 0 0 0 0 0 3 0 0 1 0 0 0 0 0 0 0 0 0 0 0 0 0 0 0 0 0 0 0 0 0 0 0 0 0 0 0 0 0 0 0 0 0 0 0 0 0 0 0 0 0 0 0 0 0 0 0 0 0 0 0 0 0 0 0 0 0 0 0 0 0 0 0 0 0 0 0 0 0 0 0 0 0 0 0 0 0 0 0 0 0 0
0 0 0 0 0 0 0 0 0 0 1 0 0 0 0 0 0 0 0 0 0 0 0 0 0 0 0 0 0 0 0 3 0 0 0 0 0 1 0 0 0 0 0 0 0 0 0 0 0 0 0 0 0 0 0 0 0 0 0 0 0 0 0 0 0 3 0 0 0 0 0 0 0 0 0 0 0 0 0 0 0 0 0 0 0 0 0 0 0 0 0 0 0 0 0
0 0 0 0 0 0 0 0 0 0 0 0 0 0 0 0 0 0 0 0 0 0 0 0 0 0 0 0 0 0 0 0 0 0 0 0 0 0 0 0 0 0 0 0 0 0 0 0 0 0 0 0 0 0 0 0 0 0 0 0 0 0 0 0 0 0 0 0 0 0 0 0 0 0 0 0 0 0 0 0 0 0 0 0 0 0 0 0 0 0 0 0 0 0 0
0 0 0 0 0 0 0 0 0 0 0 0 0 0 0 0 0 0 0 0 0 0 0 0 0 0 0 0 0 0 0 1 0 0 0 0 0 0 0 1 0 0 0 0 0 0 0 0 0 0 0 0 0 0 0 0 0 0 0 2 0 0 0 0 0 0 2 0 0 0 0 0 0 0 0 0 0 0 0 0 0 0 0 0 0 0 0 0 0 0 0 0 0 0 0
0 0 0 0 0 0 0 0 0 0 0 0 0 0 0 0 0 0 0 0 0 0 0 0 0 0 0 0 0 0 0 0 0 0 0 0 0 0 0 0 0 0 0 0 0 0 0 0 0 0 0 0 0 0 0 0 0 0 0 0 0 0 0 0 0 0 0 0 0 0 0 0 0 0 0 0 0 0 0 0 0 0 0 0 0 0 0 0 0 0 0 0 0 0 0
0 0 0 0 0 0 0 0 0 0 0 0 0 0 0 0 0 0 0 0 0 0 0 3 0 0 0 0 0 0 0 0 0 0 0 0 0 0 0 0 0 0 0 0 0 0 0 1 0 0 0 0 0 0 0 0 0 0 0 0 0 0 0 0 0 0 0 0 0 0 0 0 0 0 0 0 0 0 0 0 0 0 0 0 0 0 0 0 0 0 0 0 0 0 0
0 0 0 0 0 0 0 0 0 0 0 0 0 0 0 0 0 0 0 0 0 0 0 0 0 0 0 0 0 0 0 0 0 0 0 0 0 0 0 0 0 0 0 0 0 0 0 0 0 0 0 0 0 0 0 0 0 0 0 0 0 0 0 0 0 0 0 0 0 0 0 0 0 0 0 0 0 0 0 0 0 0 0 0 0 0 0 0 0 0 0 0 0 0 0
0 0 0 0 0 0 0 0 0 0 0 0 0 0 0 0 0 0 0 0 0 0 0 0 0 0 0 0 0 0 0 0 0 0 0 0 3 0 0 0 0 0 0 0 0 0 0 0 0 0 0 0 0 0 1 0 0 0 0 0 0 0 0 0 0 0 0 0 0 0 0 0 0 0 0 0 0 0 0 0 0 0 0 0 0 0 0 0 0 0 0 0 0 0 0
0 0 0 0 0 0 0 0 0 0 0 0 0 0 0 0 0 0 0 0 0 0 0 0 0 0 0 0 0 0 0 0 0 0 0 0 0 0 0 0 0 0 0 0 0 0 0 0 0 0 0 0 0 0 0 0 0 0 0 0 0 0 0 0 0 0 0 0 0 0 0 0 0 0 0 0 0 0 0 0 0 0 0 0 0 0 0 0 0 0 0 0 0 0 0
0 0 0 0 0 0 0 0 0 0 0 0 0 0 0 0 0 0 0 0 0 0 0 0 0 0 0 0 0 0 0 0 0 0 0 0 0 0 0 0 0 0 0 0 0 0 0 0 0 0 0 0 0 0 0 0 0 0 0 0 0 0 0 0 0 0 0 0 0 0 0 0 0 0 0 0 0 2 0 0 0 0 0 0 0 0 0 0 0 0 1 0 0 0 0
0 0 0 0 0 0 0 0 0 0 0 0 0 1 0 0 0 0 0 0 0 0 0 0 0 0 0 0 0 0 0 0 0 0 0 0 0 0 0 0 0 0 0 0 0 0 0 0 0 0 0 0 0 0 0 0 0 0 0 0 0 0 0 0 0 0 0 0 0 0 0 0 0 0 0 0 3 0 0 0 3 0 0 0 0 0 0 0 0 0 1 0 0 0 0
0 0 0 0 0 0 0 0 0 0 0 0 0 0 0 0 0 1 0 0 0 0 0 0 0 0 0 0 0 0 0 0 0 0 0 0 0 0 0 0 0 0 0 0 0 0 0 0 0 0 0 0 0 0 2 0 0 0 0 0 0 0 0 3 0 0 0 0 0 0 0 0 0 0 0 0 0 0 0 0 0 0 0 0 0 0 0 1 0 0 0 0 0 0 0
0 0 0 0 0 0 0 0 0 0 0 0 0 0 0 0 0 0 0 0 0 0 2 0 0 0 0 0 0 0 0 0 0 0 0 0 1 0 0 0 0 0 0 0 0 0 0 0 0 0 1 0 1 0 0 0 0 0 0 3 0 0 0 0 0 0 0 0 0 0 0 0 0 0 0 0 0 0 0 0 0 0 0 0 0 0 0 0 3 0 0 0 0 0 0
0 1 0 0 0 0 0 0 0 0 0 0 0 1 0 0 0 0 0 0 0 0 0 0 0 0 0 0 0 0 0 0 0 0 0 0 0 3 0 0 0 0 0 0 0 0 0 0 0 0 0 0 0 0 0 0 0 0 0 0 0 0 0 0 0 0 0 0 0 0 0 0 0 0 0 0 0 2 0 0 0 0 0 0 0 0 0 0 0 0 0 0 0 0 0
0 0 0 2 1 0 0 0 0 0 0 1 0 0 0 0 0 0 0 0 0 0 2 0 0 0 0 0 0 0 0 0 0 0 0 0 0 0 0 0 0 0 0 0 0 0 0 0 0 0 0 0 0 0 0 0 0 0 0 0 0 0 0 0 0 0 0 0 0 0 0 0 0 0 0 0 0 0 0 0 0 0 0 0 0 0 0 0 0 0 0 0 0 0 0
0 0 0 0 0 0 0 0 0 0 0 0 0 0 0 0 0 0 0 0 0 0 0 0 0 0 0 0 0 0 0 0 0 0 0 0 0 0 0 0 0 0 0 0 0 0 0 0 0 0 0 0 0 0 0 0 0 0 0 0 0 0 0 0 0 0 0 0 0 0 0 0 0 0 0 0 0 0 0 0 0 0 0 0 0 0 0 0 0 0 0 0 0 0 0
0 0 0 0 0 0 0 0 0 0 0 1 0 0 0 0 0 0 0 0 0 0 0 0 0 0 0 0 0 0 0 0 0 0 0 0 0 0 0 0 0 0 0 0 0 0 0 0 0 0 0 0 0 0 0 3 0 0 0 0 0 0 0 0 0 0 0 0 0 0 0 0 0 0 0 0 0 0 0 0 0 0 0 0 0 0 0 0 0 0 0 0 0 0 0
0 0 0 0 0 0 0 0 0 0 0 0 0 0 0 0 0 0 0 0 0 0 0 0 0 0 0 0 0 0 0 0 0 0 0 0 0 0 0 0 0 0 0 0 0 0 0 0 0 0 0 0 0 0 0 0 0 0 0 0 0 0 0 0 0 0 0 0 0 0 0 0 0 0 0 0 0 0 0 0 0 0 0 0 0 0 0 0 0 0 0 0 0 0 0
0 0 0 0 0 0 0 0 0 1 0 0 0 0 0 0 0 0 0 0 0 0 0 0 0 0 0 0 0 0 0 0 0 0 0 0 0 0 0 0 0 0 0 0 0 0 0 0 0 0 0 0 0 0 0 0 0 2 0 0 0 0 0 0 0 0 0 0 0 0 0 0 0 0 0 0 0 0 0 0 0 0 0 0 0 0 0 0 0 0 0 0 0 0 0
0 0 0 0 0 0 0 0 0 0 0 0 0 0 0 0 0 0 0 0 0 0 0 0 0 0 0 0 0 0 0 0 0 0 0 0 0 0 0 0 0 0 0 0 0 0 0 0 0 0 0 0 0 0 0 0 0 0 0 0 0 0 0 0 0 0 0 0 0 0 0 0 0 0 0 0 0 0 0 0 0 0 0 0 0 0 0 0 0 0 0 0 0 0 0
0 0 0 0 0 0 0 0 0 0 0 0 0 0 0 0 0 0 0 0 0 0 0 0 0 0 0 0 0 0 0 0 0 0 0 0 0 0 0 0 0 0 0 0 0 0 0 0 0 0 0 0 0 0 1 0 0 0 0 0 0 0 0 0 0 0 0 0 0 0 0 0 0 0 0 0 0 0 2 0 0 0 0 0 0 0 0 0 0 0 0 0 0 0 0
0 0 0 0 0 0 0 0 0 0 0 0 0 0 0 0 0 0 0 0 0 0 0 0 0 0 0 0 0 0 0 0 0 0 0 0 0 0 0 0 0 0 0 0 0 0 0 0 0 0 0 0 1 0 0 0 0 0 0 0 0 0 0 0 0 0 0 0 0 0 0 0 0 0 0 0 0 0 0 2 0 0 0 0 0 0 0 0 0 0 0 0 0 0 0
0 0 0 0 0 0 0 0 0 0 0 0 0 0 0 0 0 0 0 0 0 0 0 0 0 0 0 0 0 0 0 0 0 0 0 0 0 0 0 0 0 0 0 0 0 0 0 0 0 0 0 0 0 0 0 1 0 0 0 0 0 2 0 0 0 0 0 0 0 0 0 0 0 0 0 0 0 0 0 0 0 0 0 0 0 0 0 0 0 0 0 0 0 0 0
0 0 0 0 0 0 0 0 0 0 0 0 0 0 0 0 0 0 0 0 0 0 0 0 0 0 0 0 0 0 0 0 1 0 0 0 3 0 0 0 0 0 0 0 0 0 0 0 0 0 0 0 0 0 0 0 0 0 0 0 0 0 0 0 0 0 0 0 0 0 0 0 0 0 0 0 2 1 0 0 0 0 0 0 0 0 0 0 0 0 0 0 0 0 0
0 0 0 0 0 0 0 0 0 0 0 0 0 0 0 0 0 0 0 0 0 0 0 0 0 0 0 0 0 0 0 0 0 0 0 0 0 0 0 0 0 0 0 0 0 0 0 0 0 0 0 0 0 0 0 0 0 0 0 0 0 0 0 0 0 0 0 0 0 0 0 0 0 0 0 0 0 0 0 0 0 0 0 0 0 0 0 0 0 0 0 0 0 0 0
0 0 0 0 0 0 0 0 0 0 0 0 0 0 0 0 0 0 0 0 0 0 0 0 0 0 0 0 0 0 0 0 0 0 0 0 0 0 1 0 0 0 0 0 0 0 0 0 0 0 0 0 0 0 0 0 0 0 0 0 0 0 0 0 0 0 0 0 0 0 0 0 0 0 0 0 0 0 0 0 0 0 0 0 0 0 0 0 0 0 0 0 0 0 2
0 0 0 0 0 0 0 0 0 0 0 0 0 0 0 0 0 0 0 0 0 0 0 0 0 0 0 0 0 0 0 0 0 0 0 0 0 0 0 0 0 0 0 0 0 0 0 0 0 0 0 0 0 0 0 0 0 0 0 0 0 0 0 0 0 0 0 0 0 0 0 0 0 0 0 0 0 0 0 0 0 0 0 0 0 0 0 0 0 0 0 0 0 0 0
0 2 0 0 0 0 0 0 0 0 0 0 0 0 0 1 0 0 3 0 0 0 0 0 0 0 0 1 0 0 0 0 0 0 0 0 0 0 2 0 0 0 0 0 0 0 0 0 0 0 2 0 0 1 0 0 0 0 0 0 0 0 0 0 0 0 0 0 0 0 0 0 0 0 0 0 0 0 0 0 0 0 0 0 0 0 0 0 0 0 0 0 1 0 0

0 28 1 8 2 2 2 4 2 1 6 11 22 3 6 4 9 12 4 1 11 2 1 1 2 26 1 7 1 1 4 4 6 1 2 4 4 12 6 4 6 1 5 1 3 34 3 5 2 7 9 5 3 2 10 1 12 7 2 1 3 2 4 6 44 3 5 15 8 10 4 7 10 11 16 6 12 2 16 4 17 12 1 1 20 9 15 4 9 21 9 4 30 3 3
7 0 17 17 4 20 4 3 5 19 2 6 7 10 13 8 3 9 1 6 1 13 7 1 4 2 2 4 9 11 2 1 18 6 4 8 15 1 7 6 6 13 1 5 2 32 14 7 11 4 52 3 3 3 2 2 20 9 6 1 3 1 6 4 2 18 3 7 1 3 3 4 1 8 10 1 13 2 6 5 1 7 24 5 2 15 3 4 2 24 2 5 18 7 41
1 8 0 8 17 3 3 3 20 12 1 4 17 1 10 8 4 1 2 7 8 26 13 7 4 7 14 2 12 21 8 1 20 14 16 7 3 6 8 2 23 12 19 1 9 1 8 11 19 5 9 1 3 9 2 4 5 13 1 1 11 4 16 1 15 5 8 1 9 4 25 1 1 7 24 2 15 24 14 1 3 2 2 5 1 10 5 8 5 9 21 31 3 11 9
5 8 7 0 13 15 18 2 12 5 24 1 17 5 3 27 23 15 3 2 2 7 11 7 1 13 15 3 11 2 7 2 6 22 18 5 29 11 5 2 13 10 6 1 3 1 10 6 8 19 8 20 14 2 13 5 2 3 3 13 22 5 15 37 5 22 8 42 5 8 7 6 6 7 2 4 14 4 10 3 3 5 12 4 14 8 11 4 1 1 4 3 10 15 27
7 9 2 3 0 14 5 1 12 3 4 20 9 10 2 2 4 14 1 3 3 19 11 2 3 6 10 5 14 5 6 4 7 14 1 4 1 34 5 5 8 5 17 7 9 26 6 10 13 1 2 3 6 3 3 7 8 2 4 1 4 4 1 44 25 2 15 3 4 6 3 4 14 1 8 3 14 1 7 15 1 9 45 3 13 1 2 43 3 1 7 15 1 26 3
8 4 12 3 7 0 16 2 3 18 9 1 10 12 19 17 27 11 6 3 2 6 2 2 52 8 10 3 10 6 6 27 6 5 26 17 3 6 40 8 6 12 12 8 17 2 2 4 3 20 7 16 13 2 3 3 19 19 3 4 1 2 3 8 2 21 11 5 12 6 17 14 5 3 6 5 9 9 24 6 8 2 5 22 4 16 13 2 4 5 7 18 7 3 5
6 18 4 19 5 13 0 8 3 3 10 16 28 23 1 1 1 3 1 8 10 5 10 5 1 6 1 2 5 4 3 7 3 10 3 17 14 1 24 2 5 4 2 12 17 2 8 2 20 16 3 8 3 3 13 26 7 21 1 3 4 5 7 8 4 20 2 17 5 19 14 9 12 25 7 23 1 56 4 9 15 1 3 8 3 20 3 2 37 7 21 3 9 7 4
5 11 15 11 1 8 3 0 17 17 2 10 3 15 6 6 2 10 19 3 7 15 11 16 1 8 5 1 15 2 7 58 12 5 8 13 4 9 4 2 2 3 11 4 38 18 11 15 11 22 12 1 5 6 3 5 4 1 8 8 6 6 4 9 12 22 5 7 24 15 1 4 9 23 20 37 10 6 1 3 2 2 11 2 22 1 3 2 9 9 6 4 12 6 2
7 5 10 10 7 5 2 9 0 2 19 3 1 16 6 1 5 6 2 29 3 13 32 1 18 12 3 1 8 4 2 11 4 1 5 4 7 3 8 2 23 22 1 3 2 14 1 4 13 3 59 7 9 12 3 5 3 10 4 6 5 3 8 3 14 2 17 11 9 7 1 11 8 5 21 11 5 9 20 18 3 3 2 9 5 22 16 23 2 10 6 8 13 9 16
1 5 17 2 8 5 48 5 13 0 4 15 7 14 14 1 1 10 7 5 4 4 13 8 9 1 23 25 4 8 9 3 10 1 14 15 4 4 4 1 18 1 7 5 9 4 4 14 5 7 9 7 8 16 7 7 1 1 10 32 20 32 6 7 1 4 17 4 6 2 1 8 10 8 5 1 6 3 7 5 1 8 5 14 2 8 14 1 7 7 12 4 12 4 8
6 32 1 14 4 2 2 7 6 2 0 10 10 2 30 1 1 9 6 2 7 1 2 7 6 11 4 5 3 6 2 2 5 12 14 3 3 16 2 9 11 15 17 21 2 24 1 2 19 3 10 1 1 1 28 4 1 2 1 22 14 3 19 25 20 4 1 2 12 1 14 10 4 7 4 9 20 4 11 3 8 9 9 1 7 17 5 2 3 22 24 4 13 1 17
8 18 16 1 10 1 19 17 4 2 10 0 8 18 2 1 19 8 5 4 6 13 4 3 12 1 6 4 8 2 3 7 2 25 2 9 5 18 2 3 2 1 15 5 1 5 7 2 4 5 5 16 2 7 9 4 1 14 11 1 1 3 2 17 1 3 3 7 3 5 3 4 10 16 2 9 8 1 38 12 5 5 3 8 5 21 8 20 1 6 2 20 1 4 30
5 19 12 8 2 3 4 17 1 3 7 11 0 5 32 1 2 3 4 1 10 1 10 2 2 5 11 4 18 4 10 11 8 6 4 3 23 4 8 20 8 9 24 6 9 15 8 5 10 1 6 10 38 2 5 20 8 13 10 3 4 4 3 4 2 3 8 8 3 2 11 6 15 2 7 5 4 4 12 10 9 1 30 6 9 12 8 2 1 6 3 1 2 2 2
3 7 1 6 10 10 4 14 2 10 8 6 2 0 2 8 11 24 5 2 1 1 12 2 2 2 13 3 9 1 5 3 4 1 10 11 6 1 6 3 6 12 14 4 1 7 9 15 15 5 4 4 8 11 3 6 8 6 5 2 4 12 5 11 38 17 7 5 14 8 13 14 1 2 6 2 4 4 28 3 5 1 11 6 9 28 2 3 20 1 14 6 5 6 10
6 6 16 5 20 19 1 7 5 5 31 10 2 3 0 2 1 12 18 5 1 1 2 3 4 6 5 13 26 17 8 1 16 9 7 1 29 1 3 9 12 10 1 3 10 1 7 5 9 8 1 15 8 14 6 4 19 32 21 13 11 4 5 24 11 11 6 11 21 3 3 2 1 32 40 2 1 16 5 14 14 1 11 10 5 3 2 3 5 3 13 6 3 6 3
4 2 6 14 14 5 1 4 1 1 1 1 1 15 12 0 1 18 15 32 11 1 15 4 4 13 6 5 4 5 2 6 3 10 25 2 16 6 30 1 8 8 10 7 3 7 4 9 2 4 1 11 5 14 3 16 14 3 2 1 12 10 16 15 8 6 1 18 6 11 10 9 4 11 5 2 47 1 2 3 29 6 31 6 10 4 1 8 5 25 2 2 2 8 20
2 5 6 4 12 10 1 2 23 1 1 5 35 13 1 1 0 8 5 2 13 4 1 10 5 6 6 28 4 1 8 1 9 4 10 5 8 3 4 26 1 10 4 46 6 4 3 3 12 22 4 7 16 9 7 26 21 6 8 4 8 10 1 8 7 2 21 28 9 6 5 5 5 17 2 2 4 12 1 12 18 6 7 1 4 7 2 1 2 7 1 7 12 15 12
61 2 1 2 8 2 13 4 6 4 10 5 13 9 11 12 10 0 3 2 1 4 5 4 5 3 7 6 12 7 7 1 8 1 28 2 2 7 7 3 2 2 15 6 22 1 8 3 4 7 2 5 1 9 6 7 8 21 10 4 2 6 5 7 3 11 18 4 30 7 2 1 7 8 3 2 2 6 12 3 3 9 7 2 2 2 50 1 8 11 12 11 3 30 12
4 1 2 7 1 12 1 7 9 14 4 7 4 3 6 30 4 2 0 10 6 5 3 3 3 16 1 8 16 16 15 2 2 26 1 5 13 5 4 2 1 9 3 4 4 23 18 2 23 2 5 1 4 1 23 4 5 9 1 2 21 7 4 9 27 15 6 18 1 18 2 2 1 4 11 9 1 4 5 1 8 10 5 6 32 11 6 1 2 1 2 10 19 10 4
1 16 6 9 5 9 6 9 3 16 7 11 1 3 12 10 2 2 26 0 2 1 1 20 2 1 3 5 6 10 3 1 2 6 6 8 42 1 13 2 12 21 11 1 6 1 9 10 2 13 3 6 3 4 3 2 13 9 18 3 6 24 29 12 10 3 28 11 3 2 35 8 1 9 33 5 9 14 5 4 3 4 24 8 3 7 2 5 2 6 3 18 31 3 6
2 1 17 4 4 7 13 13 12 2 6 9 5 1 1 5 7 1 14 8 0 9 6 1 2 4 12 8 19 8 7 2 2 11 3 3 16 10 11 13 10 5 1 4 4 7 3 3 6 4 2 15 1 6 13 10 3 19 9 2 3 8 10 3 13 5 2 6 16 3 17 23 19 8 17 7 10 4 8 3 2 1 16 32 8 4 4 4 13 1 2 1 7 2 2
19 6 17 2 8 7 11 6 2 5 1 4 1 1 1 1 6 2 2 1 6 0 4 5 4 10 6 20 2 5 7 6 3 5 6 1 2 7 17 27 6 3 42 2 1 1 10 4 15 11 13 9 13 14 18 4 16 3 19 1 1 1 26 2 1 3 11 6 4 2 17 14 7 5 6 18 2 4 4 7 5 2 2 16 5 15 13 12 10 6 3 10 6 6 1
1 7 7 8 30 7 7 5 6 12 14 3 26 12 8 7 1 13 5 1 8 7 0 20 17 36 1 7 7 9 3 10 4 11 9 4 8 3 3 34 2 4 1 3 7 15 4 4 39 4 10 10 26 7 17 1 10 5 11 7 3 3 1 5 8 2 18 4 6 27 2 12 7 4 3 2 1 29 24 18 5 1 12 3 26 2 6 5 6 13 29 8 16 10 4
1 1 6 7 2 5 2 2 1 5 20 4 13 18 7 10 25 5 9 5 1 23 11 0 4 1 14 1 2 12 4 12 13 1 6 12 6 2 7 1 6 4 8 15 13 6 1 3 10 3 23 15 25 1 4 1 11 1 28 3 4 7 14 1 6 36 22 9 2 6 6 13 2 1 16 3 9 20 9 6 5 7 3 4 2 7 20 1 9 4 1 4 11 6 6
12 5 12 1 2 21 1 1 4 17 13 6 35 10 16 13 8 2 28 14 2 12 19 6 0 3 1 5 1 9 5 7 18 45 3 13 2 36 35 4 19 3 2 1 5 1 2 4 11 15 12 16 21 2 17 24 4 1 5 2 9 9 5 9 9 3 2 1 5 2 1 2 8 1 5 21 3 5 19 2 9 2 5 29 5 6 5 7 2 8 4 12 3 1 8
4 16 2 12 5 4 29 34 11 1 8 1 3 10 16 19 6 6 18 1 2 2 4 1 2 0 2 9 3 3 4 13 5 3 13 5 30 34 11 23 21 1 1 4 2 1 11 25 16 10 9 9 2 3 8 4 5 1 6 6 1 6 2 3 8 9 8 13 6 2 10 12 7 12 11 2 5 1 12 5 15 30 2 6 1 2 15 1 3 7 12 5 19 9 5
1 12 9 3 4 6 1 10 2 5 9 6 8 8 2 9 8 6 1 17 9 3 1 6 1 9 0 3 2 3 5 8 2 4 5 28 2 18 15 2 3 16 3 14 2 3 15 45 19 24 2 17 6 6 15 17 6 2 3 18 1 2 12 7 9 14 10 2 3 9 2 2 6 5 6 3 1 11 2 12 12 13 1 15 9 15 2 27 7 18 14 17 4 3 4
3 32 11 9 3 14 2 1 1 10 4 21 7 2 8 25 10 4 3 11 20 6 3 1 8 8 5 0 2 5 4 7 5 6 10 6 2 11 8 1 3 9 13 24 2 31 2 6 20 1 20 1 2 6 2 4 9 6 10 2 25 3 8 13 1 13 16 3 9 2 1 14 13 11 3 9 5 2 6 14 5 5 15 2 1 4 5 1 9 10 14 16 6 8 22
1 14 2 6 10 46 9 22 2 16 4 11 4 7 4 16 15 7 9 22 19 12 9 22 1 6 7 13 0 6 3 11 11 14 2 11 24 5 2 2 4 6 25 1 9 1 20 8 12 7 1 1 4 4 15 36 3 17 1 7 14 2 8 3 6 4 1 14 2 5 7 9 4 5 8 6 4 12 21 2 6 9 24 4 5 5 3 1 18 6 11 3 34 22 15
1 7 11 13 15 6 4 14 11 14 9 15 2 1 3 13 1 2 3 17 5 5 2 8 16 6 34 4 12 0 6 16 3 4 3 5 10 7 10 6 4 8 19 2 6 12 6 10 4 4 3 6 3 5 7 3 9 4 3 6 20 15 2 12 3 5 5 4 4 9 5 4 5 2 12 30 5 11 8 5 2 6 16 1 4 2 19 7 21 1 1 3 10 16 9
12 35 7 17 9 15 10 8 5 20 2 4 4 20 34 10 9 2 12 26 10 2 2 14 9 8 5 15 11 7 0 9 1 3 17 1 6 4 8 1 2 5 1 7 1 13 6 9 12 6 3 6 1 1 1 3 7 8 14 5 12 1 18 11 11 1 8 2 2 8 1 3 6 14 9 6 2 6 14 5 11 4 12 7 2 3 10 1 1 4 11 5 1 4 4
15 1 1 2 2 14 6 8 25 3 6 6 3 2 1 5 1 1 5 1 10 5 5 6 3 7 3 12 29 10 4 0 5 35 3 1 11 1 1 3 24 7 18 3 3 1 17 12 7 2 1 7 13 2 1 47 12 2 2 15 9 6 27 1 26 2 2 3 1 21 29 8 42 1 4 2 2 13 4 10 1 5 7 7 8 1 1 1 1 1 2 5 6 9 8
2 28 13 9 5 2 7 3 17 4 8 10 7 3 2 2 19 3 3 6 13 2 12 2 11 10 6 9 8 5 1 29 0 21 29 18 11 5 7 13 3 22 10 14 1 4 1 5 2 4 25 3 12 15 10 15 9 3 1 3 13 3 1 2 2 35 19 1 4 3 7 1 18 2 1 20 5 4 17 8 8 3 1 5 10 12 23 3 5 2 9 4 4 5 14
1 6 2 39 3 4 10 10 1 1 21 11 8 1 4 6 8 1 9 6 27 2 7 1 6 4 25 13 7 7 3 8 4 0 19 3 28 1 13 14 1 13 1 19 8 1 11 1 9 21 5 5 15 38 2 12 19 7 3 11 4 5 23 22 6 2 10 5 31 11 8 7 4 9 1 8 12 3 36 13 1 7 2 1 6 2 2 15 5 6 3 4 5 2 5
3 2 8 2 1 2 7 28 16 34 5 8 9 3 16 2 6 3 1 8 11 6 49 10 6 6 11 9 8 19 2 3 10 10 0 11 18 6 7 12 8 29 4 2 2 13 13 15 31 4 13 2 2 35 6 2 1 12 1 8 9 10 2 3 4 5 17 5 2 5 17 8 5 4 7 18 6 15 24 15 1 6 11 2 4 2 4 3 11 9 8 5 1 15 5
18 2 4 10 18 2 8 6 60 14 2 8 4 5 1 12 3 7 5 3 2 1 13 4 11 7 6 11 7 23 1 1 27 4 10 0 3 16 5 8 2 17 1 3 3 20 10 7 10 8 1 1 1 3 4 7 14 25 5 8 17 3 10 11 4 14 3 11 4 9 3 5 1 16 30 5 16 6 1 11 2 2 12 7 9 3 3 6 2 1 13 7 4 2 1
7 32 2 15 1 7 37 9 3 27 5 7 2 11 22 2 4 10 3 3 12 5 6 19 6 5 6 2 23 16 7 3 14 3 10 6 0 4 4 12 4 16 18 9 2 14 1 14 7 22 2 33 4 3 3 12 7 31 9 11 8 5 9 2 16 1 1 12 1 20 4 19 3 22 4 9 8 2 15 2 40 13 7 8 4 34 4 24 13 5 4 6 1 2 12
15 1 19 11 17 10 1 4 5 2 6 9 6 1 1 2 7 19 16 1 49 19 2 10 7 6 28 13 25 16 17 1 27 1 4 3 3 0 18 16 12 43 4 3 3 7 7 11 2 3 13 12 12 6 2 1 1 2 4 1 2 19 9 7 18 3 12 18 7 28 12 7 12 16 17 1 28 18 3 2 3 1 11 6 7 29 3 13 20 2 4 3 3 4 4
7 24 4 24 7 3 8 16 2 9 23 10 8 4 10 17 14 7 32 19 9 7 3 2 2 8 27 11 4 7 20 1 2 4 9 13 16 8 0 1 3 10 14 18 21 7 2 4 5 2 5 1 1 29 2 23 7 9 8 7 11 2 9 10 4 5 2 1 1 6 3 25 25 1 2 3 3 20 8 4 6 8 6 3 6 2 6 14 7 2 8 4 64 4 1
10 3 5 21 2 21 7 5 4 1 3 9 16 3 7 1 2 4 4 4 5 14 3 1 2 12 10 1 3 4 1 11 45 25 2 4 20 6 1 0 8 5 1 2 13 7 9 17 5 8 1 1 10 3 19 8 35 2 12 1 13 8 5 3 11 17 2 11 6 18 7 4 5 2 2 18 1 6 11 7 4 2 17 24 2 3 7 1 3 2 8 4 4 31 7
9 8 20 13 25 2 7 4 2 6 2 6 35 12 10 6 1 8 1 10 5 11 13 11 3 5 3 15 10 9 3 18 2 1 26 13 13 4 2 5 0 6 4 4 2 6 11 15 9 2 3 9 21 7 1 4 5 2 7 3 5 7 3 9 4 2 8 5 10 8 5 6 5 4 6 1 15 10 1 48 7 12 3 1 3 2 5 1 3 7 4 11 5 13 3
1 4 14 6 2 9 2 2 7 1 10 1 13 8 3 9 4 8 4 3 17 2 12 21 7 1 4 14 6 16 20 6 2 5 2 2 4 7 7 4 3 0 1 6 5 13 3 10 7 1 5 3 9 17 6 7 16 6 4 8 3 17 8 7 5 1 11 4 16 31 19 8 6 7 3 4 10 14 2 23 8 13 1 8 17 15 7 35 6 4 14 5 7 17 5
8 1 14 12 3 25 20 4 1 2 3 3 4 14 1 4 6 5 8 18 1 10 1 2 5 1 9 10 13 9 1 5 12 1 12 1 5 9 2 1 14 1 0 15 1 14 7 2 3 1 5 13 3 4 10 3 2 4 4 1 5 7 16 5 13 6 12 2 4 8 1 41 5 5 5 5 1 1 7 2 9 4 1 41 1 4 8 5 2 22 6 9 2 7 14
1 4 1 1 6 20 7 7 4 2 2 15 12 11 10 12 5 3 2 1 11 12 3 5 1 3 8 5 1 2 5 15 10 13 22 2 2 3 3 8 11 16 3 0 21 2 15 10 4 2 5 3 2 1 2 9 1 3 18 12 1 5 2 13 16 9 5 1 12 6 1 4 1 3 10 18 5 12 14 4 1 9 31 5 1 7 2 28 5 1 8 7 1 17 10
4 19 3 15 9 8 4 10 25 2 7 1 23 1 6 6 13 17 17 4 2 1 2 15 3 5 8 37 16 11 1 23 1 44 6 2 14 3 10 2 16 22 1 4 0 1 19 5 13 4 1 7 4 3 1 7 1 14 5 1 2 3 3 2 1 5 2 14 5 10 1 6 2 8 2 8 4 12 1 3 14 3 1 14 25 4 13 3 6 5 18 4 5 2 1
23 4 1 1 12 5 11 15 14 4 25 4 4 6 1 5 11 1 8 1 4 1 23 6 1 1 2 4 1 4 10 1 5 1 4 7 21 4 27 21 10 3 5 10 1 0 7 9 5 11 2 3 8 11 1 2 7 10 6 5 13 9 21 12 21 1 9 2 3 2 1 3 1 7 4 8 14 7 7 7 3 9 12 8 2 24 17 1 2 1 20 1 4 14 10
3 3 3 3 10 4 9 13 1 9 1 8 3 26 5 3 2 5 3 15 3 3 10 1 13 2 2 2 10 15 17 4 1 11 10 18 1 3 11 6 2 2 5 3 6 15 0 8 7 4 27 57 1 1 2 2 15 9 2 1 4 1 1 3 8 6 1 3 5 2 24 1 3 2 6 3 3 2 8 2 13 11 7 3 3 31 6 6 3 6 8 17 6 8 7
5 4 4 13 23 7 6 7 2 11 5 13 2 14 2 10 10 8 5 3 2 4 15 3 3 7 3 5 15 5 5 5 2 1 11 7 10 7 8 3 3 8 25 7 24 8 7 0 2 20 4 1 9 6 14 9 10 27 9 7 2 5 19 6 5 16 2 10 1 3 3 23 3 6 1 6 7 11 3 2 2 1 7 7 2 5 15 2 10 3 21 3 10 1 27
3 6 17 13 2 2 3 2 3 3 3 18 5 62 7 3 2 3 2 33 25 2 10 4 12 5 4 2 4 4 15 6 2 13 26 2 3 4 9 2 3 12 7 30 2 8 23 9 0 3 3 2 5 7 2 43 4 14 5 16 4 19 38 7 31 30 33 6 11 5 8 13 17 2 18 1 26 12 3 8 4 23 14 1 29 5 10 2 34 3 6 5 10 8 20
39 23 3 3 1 9 11 11 6 2 14 6 1 10 16 19 11 10 7 10 4 6 3 7 2 10 5 1 8 2 11 7 5 5 6 5 2 2 2 9 5 1 1 15 13 21 4 9 9 0 5 1 27 5 7 21 3 6 15 1 12 27 4 3 10 3 4 19 6 20 9 4 11 1 2 1 2 11 11 2 4 2 18 4 1 3 14 4 10 2 8 1 18 8 1
5 2 2 15 2 23 4 4 9 2 3 3 5 11 1 1 2 3 3 8 33 6 6 4 14 2 13 4 1 10 9 1 2 6 41 1 22 10 29 1 4 9 10 10 1 7 3 4 5 7 0 8 13 4 24 10 2 2 4 1 10 4 2 3 1 21 1 8 14 2 13 7 2 3 5 9 1 4 1 8 1 18 2 2 3 12 9 1 4 3 13 3 16 2 8
3 6 1 2 2 3 11 1 2 26 1 8 2 15 5 11 7 13 1 8 6 17 8 2 2 9 8 1 1 7 19 5 8 6 7 1 4 17 1 1 14 15 8 7 2 6 2 1 9 1 12 0 1 1 17 2 3 4 1 1 6 10 13 18 20 3 1 7 7 4 11 13 11 6 12 11 8 6 2 6 15 1 10 11 18 6 9 15 14 2 4 37 2 3 17
11 2 23 4 2 5 4 2 39 6 1 7 11 2 7 3 2 1 4 17 1 7 3 24 5 2 4 2 2 13 1 12 5 10 2 1 20 16 1 21 3 15 9 11 3 3 1 7 14 14 2 1 0 17 11 19 1 7 4 5 6 7 1 1 16 16 19 3 1 9 3 1 1 1 1 10 1 9 8 3 2 8 7 11 3 4 3 11 1 7 2 8 6 14 21
18 20 5 4 3 13 2 31 10 14 1 19 5 4 3 33 43 9 1 5 8 17 7 1 33 15 7 17 6 8 1 14 14 9 17 2 4 8 9 5 14 40 25 1 28 34 1 12 7 15 11 1 11 0 29 9 10 2 10 1 6 18 3 11 16 24 4 1 54 4 1 8 5 1 9 2 19 10 9 16 11 3 2 14 18 2 7 23 14 2 5 2 1 17 4
4 2 12 5 4 3 8 6 2 5 14 7 4 9 5 17 6 5 3 2 12 4 3 3 2 20 5 4 10 40 1 1 6 7 9 6 19 2 15 4 1 21 10 18 1 1 5 4 3 14 2 20 5 3 0 3 10 6 26 9 3 12 19 13 1 1 7 2 16 6 4 4 1 2 9 1 26 5 1 5 4 4 2 34 1 7 15 17 9 7 12 3 7 3 36
1 20 10 4 2 12 4 3 12 5 6 6 24 7 18 2 4 3 4 3 3 13 1 1 2 3 5 2 16 16 17 14 18 4 11 2 2 1 2 5 4 7 9 3 8 7 3 6 24 22 2 25 4 34 7 0 1 9 1 9 17 19 8 2 7 24 10 2 5 7 37 3 4 5 2 6 11 8 2 6 3 1 1 9 4 21 12 8 5 5 1 4 1 12 9
25 9 4 9 19 21 14 3 2 1 1 1 7 19 2 2 4 9 4 5 13 12 13 12 4 11 18 2 10 18 3 20 2 12 1 6 13 1 12 10 2 5 4 1 1 8 11 6 10 14 3 6 1 7 4 1 0 5 10 2 10 22 23 4 1 2 18 11 10 5 22 21 1 7 5 11 2 7 5 3 1 16 13 11 9 7 6 27 20 1 26 3 2 4 17
7 5 4 9 9 20 21 1 4 1 23 15 9 7 8 10 4 5 2 5 5 7 5 1 1 1 3 29 2 2 34 2 33 6 14 15 10 23 8 14 3 16 11 27 7 3 3 20 14 26 13 9 18 3 3 2 2 0 10 16 14 17 9 1 15 12 6 2 10 15 5 2 11 38 11 3 13 9 5 2 4 18 17 5 3 8 4 18 19 6 23 3 7 4 13
6 6 1 5 6 22 1 3 6 5 1 10 12 2 9 11 38 10 1 14 8 2 8 5 10 13 48 22 1 6 11 6 1 5 1 3 4 22 13 4 2 9 15 7 3 5 2 5 10 12 4 1 13 19 7 1 34 3 0 1 3 2 22 5 3 10 6 1 7 2 1 4 17 5 3 2 2 3 5 1 15 5 14 16 13 10 7 23 2 9 2 9 1 13 10
1 1 1 8 1 7 2 5 4 13 7 1 11 12 13 1 5 6 3 4 8 1 10 16 7 7 18 5 9 5 8 2 3 14 20 21 14 1 5 1 2 6 1 2 1 19 1 3 6 1 1 1 9 1 4 6 7 4 1 0 1 1 9 4 12 4 2 4 8 11 1 4 2 22 1 2 2 11 3 14 1 21 6 2 4 2 1 11 3 6 3 5 55 7 9
7 14 4 12 5 1 5 12 6 7 14 1 32 7 3 3 27 12 3 7 15 1 7 3 4 1 1 10 17 6 2 8 3 2 5 10 4 2 12 3 14 19 11 1 7 13 12 12 7 8 3 8 12 2 9 23 6 3 9 1 0 12 11 6 16 25 4 4 5 18 8 9 21 4 4 9 19 1 2 4 6 3 1 14 5 2 3 25 3 7 19 14 1 3 11
10 1 13 6 2 13 31 7 3 5 13 3 8 3 7 3 10 2 7 5 5 1 22 14 6 2 18 7 2 5 1 8 5 13 6 14 12 7 12 2 2 19 8 7 10 9 1 36 5 8 5 2 29 7 6 7 8 2 4 1 3 0 2 22 1 2 10 6 7 19 1 9 3 10 7 5 6 12 13 2 1 20 2 8 17 5 2 2 19 8 15 12 2 15 3
13 36 2 7 1 3 8 2 12 2 8 21 6 4 8 3 1 16 3 5 15 20 1 3 5 6 11 4 7 4 4 6 1 5 3 2 12 21 9 2 2 24 7 19 12 3 1 3 14 2 3 6 1 9 5 5 6 3 17 6 27 9 0 10 12 23 4 2 7 18 2 3 22 4 3 4 7 16 11 15 1 7 29 3 22 24 7 17 1 10 6 10 6 4 5
2 2 1 5 6 17 5 8 4 26 3 16 11 3 3 7 12 4 7 42 6 13 12 1 2 3 6 36 4 32 2 1 10 10 8 6 8 11 3 6 19 19 8 2 4 4 16 7 4 4 15 6 1 19 4 5 11 1 18 2 15 9 4 0 30 3 3 2 7 9 2 1 2 4 10 1 4 4 2 6 2 3 21 3 2 7 5 11 9 8 17 8 5 10 8
10 26 4 8 14 3 6 12 2 1 2 1 4 5 9 4 3 4 5 9 3 1 3 2 6 10 3 1 3 2 6 4 4 10 2 17 3 7 6 2 9 2 4 6 1 3 8 4 22 6 1 9 2 6 1 12 1 12 6 8 10 1 4 39 0 6 7 3 1 23 16 1 4 2 4 1 8 1 1 7 7 3 10 9 1 6 28 7 5 18 21 16 1 3 6
2 2 3 3 11 2 5 16 7 15 16 7 11 9 12 3 9 14 7 6 6 6 17 23 10 33 17 11 2 8 1 10 6 5 6 7 1 5 2 3 2 1 4 12 13 1 10 2 5 4 16 22 8 10 1 9 3 5 11 7 18 9 2 15 3 0 3 19 1 4 2 46 5 22 1 16 3 12 19 25 3 6 1 7 2 5 1 2 8 1 19 11 1 6 26
19 5 10 2 11 51 3 2 6 4 1 4 17 4 31 1 9 5 14 11 16 24 21 7 4 6 8 3 1 20 14 2 4 14 15 5 1 2 14 5 5 3 13 15 10 3 1 5 20 7 1 1 3 4 13 14 26 16 9 14 3 3 15 4 5 5 0 7 18 13 8 16 14 1 12 11 14 2 5 9 3 13 9 2 9 13 8 3 14 3 1 2 12 12 3
4 9 1 9 2 5 10 4 3 6 14 10 3 8 13 14 18 13 6 20 21 12 8 15 1 4 3 12 2 5 4 8 1 13 10 25 4 4 1 2 16 11 8 1 5 18 5 5 7 5 3 10 9 1 21 9 5 26 1 14 5 8 6 11 17 2 7 0 2 7 7 29 2 11 3 3 21 12 30 1 27 4 3 14 2 27 16 11 4 14 9 22 4 1 1
14 1 8 4 2 9 5 2 2 7 7 2 7 33 10 2 27 4 1 2 6 26 20 16 18 10 9 10 6 11 6 1 4 5 11 5 1 13 1 17 2 24 13 30 4 9 8 1 4 33 4 2 1 16 9 8 23 26 8 3 2 2 3 6 1 1 7 8 0 4 4 4 28 7 7 1 6 7 12 6 38 5 4 23 3 13 15 2 5 12 8 22 6 1 13
4 8 4 7 5 16 6 10 10 4 1 7 2 15 2 14 8 6 18 6 20 11 4 15 7 17 18 3 47 8 28 3 30 4 2 9 4 17 4 12 4 12 8 4 7 5 19 7 3 4 9 44 5 10 2 16 41 18 31 9 4 5 12 18 5 6 15 5 12 0 13 12 14 2 5 10 3 3 4 11 16 6 19 6 6 36 7 3 3 3 2 8 3 1 10
8 16 33 2 4 7 15 1 1 1 3 8 10 12 2 12 5 7 8 2 33 18 36 8 1 2 9 1 5 5 1 6 27 2 2 3 11 7 6 6 7 7 1 1 1 1 10 3 5 16 21 5 5 1 22 13 16 5 1 1 24 1 5 2 27 13 2 5 2 6 0 24 10 1 16 1 3 10 1 12 1 8 18 20 3 11 4 7 25 6 13 1 3 6 11
3 19 1 8 6 2 5 3 7 19 5 3 2 7 6 3 2 1 5 2 32 4 10 3 5 20 10 5 6 8 15 33 1 8 6 3 9 15 5 10 2 2 7 16 6 3 1 28 3 9 3 3 1 2 8 24 7 2 11 7 3 8 3 1 1 4 8 13 5 5 5 0 3 1 1 1 11 1 14 5 4 5 9 2 4 4 5 43 3 7 3 5 9 10 2
12 1 1 3 13 7 3 3 8 9 5 2 18 1 1 2 2 20 1 1 12 8 8 8 2 7 2 6 11 5 6 3 10 5 10 1 20 5 22 8 4 8 3 1 13 1 4 5 3 3 12 2 1 3 1 28 1 3 9 5 14 6 10 2 12 15 4 5 16 2 30 2 0 2 15 14 28 36 17 6 4 13 11 7 1 6 9 2 10 10 16 12 2 10 9
37 13 4 53 1 2 2 4 8 17 6 2 8 2 8 9 12 32 3 32 5 7 3 1 1 22 19 18 15 4 5 1 3 10 13 5 28 18 1 3 11 8 7 6 16 15 12 3 2 1 7 25 1 1 17 3 23 5 7 9 16 4 9 7 18 8 1 7 8 6 1 1 31 0 3 5 29 1 17 3 4 6 6 11 9 4 11 3 10 10 1 6 4 6 1
20 3 5 2 3 16 20 11 27 6 5 11 11 9 9 13 2 4 4 14 9 4 5 3 12 14 3 25 12 5 3 6 1 1 4 11 12 11 6 6 10 9 19 16 9 15 3 1 4 12 3 22 1 4 8 11 5 2 12 1 11 2 15 9 12 1 16 5 13 15 18 1 9 9 0 13 1 2 9 15 1 7 8 5 1 20 18 1 10 1 19 5 14 1 4
7 1 8 22 3 2 17 8 2 1 7 29 11 19 10 15 25 5 6 3 9 3 9 15 14 5 7 4 3 9 6 2 14 3 11 3 21 1 23 2 1 21 2 4 2 3 5 7 1 1 5 6 3 2 1 12 9 11 4 6 23 5 6 1 1 24 3 4 1 6 1 1 15 9 27 0 3 3 18 16 24 12 2 1 1 4 4 16 1 24 1 16 16 12 7
6 5 8 14 2 5 1 3 4 6 4 5 12 8 1 2 8 5 1 13 6 8 1 8 5 3 1 11 4 8 5 8 10 5 3 2 21 8 28 1 22 15 1 6 2 3 2 6 3 17 1 9 1 4 11 2 14 3 26 22 3 6 20 19 3 6 9 3 15 5 15 5 9 3 1 13 0 4 3 2 16 2 2 22 17 2 15 1 5 10 5 5 17 8 9
39 40 2 3 1 19 4 5 2 3 5 1 4 10 5 1 3 11 3 2 6 24 6 8 4 1 9 3 22 3 7 6 9 12 2 2 6 25 6 7 11 3 1 3 16 2 15 7 6 15 19 5 5 4 2 26 2 4 8 25 1 5 20 5 1 5 7 4 11 12 7 1 2 1 2 10 4 0 3 7 14 20 1 4 2 5 12 9 4 3 17 6 6 6 33
4 2 4 29 11 8 11 1 5 2 7 11 4 24 3 9 1 9 8 3 10 11 11 19 7 21 7 13 3 5 4 8 8 14 15 1 15 4 2 2 1 4 6 3 1 2 7 23 8 6 1 5 9 12 1 4 7 3 23 5 9 4 4 10 1 11 3 3 9 5 1 21 4 2 4 3 5 3 0 6 7 2 17 14 2 2 20 23 8 10 13 8 15 5 1
10 4 1 17 8 26 8 7 2 11 7 22 3 5 3 22 16 15 1 8 10 8 17 15 2 9 25 2 4 6 16 4 6 3 23 4 11 9 4 7 24 20 6 2 14 2 3 15 7 3 2 7 6 12 13 2 3 12 1 12 11 4 5 13 3 2 3 1 8 3 6 24 6 22 5 12 4 3 2 0 3 2 3 14 1 4 1 15 8 2 4 5 5 5 14
2 1 9 9 1 14 9 42 2 1 15 13 8 5 9 8 21 7 13 5 7 8 4 8 6 3 12 13 3 4 9 1 22 1 1 11 13 17 37 6 20 20 14 1 11 4 6 11 3 2 1 4 8 10 3 7 1 8 9 1 4 1 1 11 5 4 7 4 5 26 1 20 26 26 1 8 17 12 16 9 0 4 11 12 3 7 19 5 4 5 51 13 19 1 5
3 12 3 5 7 22 1 3 3 8 3 3 1 1 1 10 9 18 9 3 1 18 1 20 30 3 5 7 19 9 3 2 14 4 4 5 16 1 5 9 3 9 3 6 9 10 11 1 26 3 5 1 5 2 7 1 7 5 7 12 5 11 6 8 6 2 13 2 2 6 2 8 8 5 13 11 2 6 15 4 4 0 22 2 3 5 5 8 1 6 28 17 7 4 11
1 27 23 4 4 7 3 2 14 10 8 6 6 5 11 13 14 10 22 20 8 4 2 9 29 12 1 8 27 2 6 15 1 21 3 8 10 13 4 15 3 1 1 6 1 8 4 10 10 3 3 4 2 15 2 1 2 25 3 4 1 2 20 3 3 1 6 5 18 3 2 5 19 25 3 4 17 1 12 5 2 14 0 2 3 8 9 7 9 7 3 8 12 5 9
1 14 9 6 2 2 9 7 17 30 1 13 13 8 23 10 1 9 5 2 2 4 11 21 2 2 4 12 4 1 5 7 22 1 5 3 3 7 22 5 1 10 3 2 5 16 11 10 1 4 17 9 31 9 18 6 11 9 2 11 2 5 6 9 7 8 4 8 8 22 6 4 27 9 9 1 9 35 26 17 7 21 12 0 2 12 2 5 4 9 5 24 3 12 8
8 13 1 3 4 3 15 2 22 10 12 6 3 14 5 4 8 14 2 5 6 11 18 33 7 1 14 1 8 5 11 3 26 3 4 7 6 3 3 2 63 6 1 1 16 3 3 23 2 1 3 17 10 5 1 24 2 16 7 11 4 6 6 8 1 2 3 5 2 10 12 9 1 33 1 1 24 2 21 1 3 41 35 10 0 2 1 1 40 10 8 10 5 11 8
13 11 8 20 1 6 4 1 3 6 10 9 4 18 7 6 2 2 2 12 17 13 2 5 5 3 3 6 2 16 18 1 12 7 25 4 8 7 3 2 6 7 3 9 2 3 17 2 7 7 5 7 2 5 23 4 3 16 29 2 13 6 7 6 10 17 3 4 2 2 17 10 14 3 8 6 5 9 3 11 6 18 8 7 9 0 16 9 1 2 9 3 4 11 19
33 3 15 13 8 11 3 20 3 4 8 13 4 8 9 1 9 3 5 4 13 7 2 8 4 2 16 7 10 5 8 1 25 23 17 4 3 4 4 5 12 5 20 7 2 9 2 8 6 6 3 3 3 2 2 4 6 4 4 1 17 3 15 4 4 1 5 6 2 4 2 10 3 19 6 10 11 15 2 1 3 3 8 9 1 4 0 5 1 7 9 4 1 6 15
2 18 11 9 4 13 4 4 4 1 6 5 4 18 3 16 1 1 1 13 17 3 18 1 21 1 31 1 1 11 1 1 13 9 6 15 3 6 3 1 1 2 31 13 22 1 30 3 3 9 1 3 2 6 7 2 10 12 11 39 5 19 10 5 9 7 3 24 2 9 24 8 3 19 1 7 1 10 21 6 7 14 3 27 1 5 2 0 19 16 3 8 27 12 4
2 8 3 1 16 14 4 8 13 4 11 1 1 4 13 14 2 7 2 11 9 2 7 23 15 2 10 13 24 30 1 1 6 7 7 5 9 10 4 4 2 2 17 3 3 2 14 13 3 2 3 2 1 5 31 13 5 3 7 3 5 3 1 6 29 9 4 5 8 2 3 7 18 9 2 1 18 4 11 5 13 1 6 5 2 1 1 5 0 14 1 12 9 41 11
4 10 5 1 1 3 2 23 10 13 10 7 6 1 3 12 9 8 1 8 1 5 27 3 3 6 4 28 7 1 2 1 11 6 8 1 11 22 12 6 21 21 3 1 11 1 6 18 7 4 4 12 6 7 6 8 1 2 5 9 17 23 2 6 3 1 4 21 12 13 18 3 8 5 1 5 6 6 6 21 5 8 23 4 3 4 11 5 13 0 35 1 2 8 6
11 2 6 6 4 13 19 2 5 16 4 8 10 11 15 8 1 22 7 4 4 10 3 1 5 4 9 4 7 1 5 16 3 4 2 2 6 12 6 7 10 12 10 3 7 7 2 3 2 13 2 6 5 21 4 1 4 5 13 2 3 10 39 11 8 2 1 7 5 2 5 13 11 1 2 1 2 11 3 16 3 30 6 5 22 16 16 11 1 22 0 12 16 9 4
4 7 11 4 14 6 2 21 9 16 7 2 1 25 6 4 8 4 2 4 1 5 11 9 3 15 6 27 11 4 2 4 8 2 4 14 10 8 8 11 12 15 4 8 8 1 3 26 20 1 12 17 18 2 3 5 2 7 6 10 10 11 4 8 9 31 15 6 9 7 1 7 7 19 7 3 3 2 29 18 38 2 10 3 14 3 14 2 9 1 3 0 5 9 14
6 13 5 13 1 7 4 8 7 9 4 1 6 20 11 12 19 8 16 8 8 15 4 7 3 6 21 7 37 3 1 11 15 18 1 6 1 10 16 3 11 37 8 1 16 17 11 16 2 4 12 6 4 1 3 1 4 11 1 3 1 13 9 22 1 1 5 24 4 5 28 8 21 2 11 5 8 4 21 6 8 50 17 3 13 6 1 10 12 5 3 19 0 4 3
2 4 9 7 15 3 10 4 10 4 1 6 14 7 22 9 4 7 6 6 28 2 7 2 1 5 23 6 20 6 13 13 2 13 3 6 2 5 10 5 9 11 4 13 2 19 10 1 27 16 11 4 4 15 2 21 28 20 2 11 4 4 4 20 3 2 16 1 1 1 10 15 5 26 1 2 4 2 3 6 1 5 10 11 13 12 11 3 12 4 4 5 12 0 12
2 7 9 6 2 14 2 5 9 4 23 2 10 13 6 13 6 4 3 32 3 1 14 9 25 6 14 25 13 4 3 11 3 3 11 1 21 6 1 6 3 11 8 17 1 6 11 17 8 1 18 18 3 8 6 2 11 2 2 4 14 3 7 14 5 30 11 1 12 5 7 5 6 1 4 12 2 5 1 28 15 6 16 15 4 14 2 15 6 14 3 9 12 2 0
